db/data/6223782320014198572892132081832025930.z3.out
sat
-------------------
317.125630314
